DIMACS2
20 3 233 138 286 161 127 144 106 212 195 46 238 244 243 259 114 30 80 24 47
p edge 320 321
e 0 43 5.0
e 1 122 1.0
e 2 43 4.0
e 3 112 46.0
e 3 0 4.0
e 4 283 1.0
e 5 314 1.0
e 6 68 4.0
e 7 290 1.0
e 8 6 22.0
e 9 302 3.0
e 10 4 1.0
e 11 267 1.0
e 12 228 1.0
e 13 248 1.0
e 14 221 1.0
e 15 46 13.0
e 16 214 2.0
e 17 79 1.0
e 18 165 2.0
e 19 204 5.0
e 20 146 2.0
e 21 318 1.0
e 22 292 9.0
e 23 238 14.0
e 24 154 1.0
e 25 171 2.0
e 26 131 1.0
e 27 295 11.0
e 28 41 1.0
e 29 312 1.0
e 30 108 19.0
e 31 212 37.0
e 32 97 5.0
e 33 153 9.0
e 34 2 4.0
e 35 283 1.0
e 36 176 2.0
e 37 12 1.0
e 38 164 1.0
e 39 109 1.0
e 40 308 3.0
e 41 283 1.0
e 42 172 2.0
e 43 40 1.0
e 44 274 2.0
e 45 78 1.0
e 46 313 44.0
e 47 24 25.0
e 48 236 1.0
e 49 188 1.0
e 50 258 7.0
e 51 93 1.0
e 52 296 1.0
e 53 184 1.0
e 54 285 2.0
e 55 226 4.0
e 56 178 1.0
e 57 92 12.0
e 58 280 2.0
e 59 13 1.0
e 60 146 5.0
e 61 177 2.0
e 62 214 1.0
e 63 129 3.0
e 64 27 7.0
e 65 58 1.0
e 66 130 1.0
e 67 188 1.0
e 68 303 1.0
e 69 298 1.0
e 70 25 4.0
e 71 248 1.0
e 72 182 1.0
e 73 228 1.0
e 74 95 1.0
e 75 25 6.0
e 76 133 1.0
e 77 226 8.0
e 78 86 2.0
e 79 125 2.0
e 80 129 45.0
e 81 174 1.0
e 82 118 2.0
e 83 17 2.0
e 84 214 1.0
e 85 116 5.0
e 86 128 1.0
e 87 108 3.0
e 88 232 1.0
e 89 80 34.0
e 90 280 6.0
e 91 135 1.0
e 92 66 12.0
e 93 289 1.0
e 94 312 1.0
e 95 122 1.0
e 96 260 1.0
e 97 290 3.0
e 98 154 2.0
e 99 286 36.0
e 100 144 26.0
e 101 10 1.0
e 102 188 1.0
e 103 318 1.0
e 104 82 3.0
e 105 170 1.0
e 106 266 3.0
e 107 244 16.0
e 108 142 1.0
e 109 267 1.0
e 110 180 2.0
e 111 170 1.0
e 112 16 12.0
e 113 207 1.0
e 114 71 29.0
e 115 0 6.0
e 116 257 3.0
e 117 83 1.0
e 118 312 1.0
e 119 61 8.0
e 120 38 5.0
e 121 104 2.0
e 122 94 1.0
e 123 120 1.0
e 124 238 41.0
e 125 297 1.0
e 126 188 1.0
e 127 158 9.0
e 128 287 1.0
e 129 257 1.0
e 130 11 1.0
e 131 1 1.0
e 132 188 1.0
e 133 106 3.0
e 134 186 1.0
e 135 255 22.0
e 136 293 1.0
e 137 276 4.0
e 138 302 38.0
e 139 87 6.0
e 140 165 1.0
e 141 262 1.0
e 142 156 1.0
e 143 298 1.0
e 144 280 36.0
e 145 44 4.0
e 146 75 12.0
e 147 33 1.0
e 148 171 1.0
e 149 52 1.0
e 150 192 1.0
e 151 259 13.0
e 152 238 3.0
e 153 187 10.0
e 154 225 1.0
e 155 64 1.0
e 156 110 1.0
e 157 225 1.0
e 158 205 19.0
e 159 193 3.0
e 160 170 1.0
e 161 92 44.0
e 162 83 1.0
e 163 100 1.0
e 164 82 2.0
e 165 71 1.0
e 166 141 1.0
e 167 37 1.0
e 168 278 3.0
e 169 48 1.0
e 170 93 1.0
e 171 73 2.0
e 172 139 3.0
e 173 288 1.0
e 174 12 1.0
e 175 71 1.0
e 176 70 1.0
e 177 233 10.0
e 178 293 1.0
e 179 248 2.0
e 180 310 1.0
e 181 157 1.0
e 182 201 1.0
e 183 209 3.0
e 184 214 1.0
e 185 264 1.0
e 186 28 1.0
e 187 245 13.0
e 188 12 1.0
e 189 240 7.0
e 190 276 4.0
e 191 304 1.0
e 192 148 1.0
e 193 133 1.0
e 194 75 4.0
e 195 139 18.0
e 196 95 1.0
e 197 307 2.0
e 198 29 1.0
e 199 10 1.0
e 200 195 14.0
e 201 300 1.0
e 202 298 1.0
e 203 21 1.0
e 204 223 5.0
e 205 217 4.0
e 206 133 2.0
e 207 203 1.0
e 208 75 4.0
e 209 315 1.0
e 210 188 1.0
e 211 249 2.0
e 212 248 47.0
e 213 247 2.0
e 214 51 2.0
e 215 5 1.0
e 216 65 2.0
e 217 234 4.0
e 218 272 1.0
e 219 220 1.0
e 220 143 2.0
e 221 120 1.0
e 222 113 1.0
e 223 119 4.0
e 224 120 1.0
e 225 67 1.0
e 226 195 7.0
e 227 271 1.0
e 228 123 3.0
e 229 289 1.0
e 230 55 1.0
e 231 143 1.0
e 232 26 1.0
e 233 22 27.0
e 234 312 2.0
e 235 216 1.0
e 236 20 4.0
e 237 37 1.0
e 238 38 20.0
e 239 31 10.0
e 240 114 49.0
e 241 235 1.0
e 242 221 2.0
e 243 54 31.0
e 244 8 48.0
e 245 127 23.0
e 246 200 2.0
e 247 51 1.0
e 248 76 1.0
e 249 281 1.0
e 250 156 1.0
e 251 174 1.0
e 252 217 5.0
e 253 258 1.0
e 254 123 2.0
e 255 161 31.0
e 256 135 12.0
e 257 307 4.0
e 258 92 9.0
e 259 246 4.0
e 260 79 1.0
e 261 306 1.0
e 262 117 1.0
e 263 247 1.0
e 264 123 2.0
e 265 309 2.0
e 266 145 3.0
e 267 193 1.0
e 268 248 3.0
e 269 315 11.0
e 270 279 3.0
e 270 3 33.0
e 271 7 2.0
e 272 232 1.0
e 273 206 1.0
e 274 224 1.0
e 275 241 1.0
e 276 291 1.0
e 277 140 1.0
e 278 145 2.0
e 280 225 1.0
e 281 230 1.0
e 282 197 3.0
e 283 174 1.0
e 284 21 1.0
e 285 38 3.0
e 286 208 38.0
e 287 230 2.0
e 288 157 1.0
e 289 302 2.0
e 290 152 5.0
e 291 152 11.0
e 292 103 1.0
e 293 184 1.0
e 294 14 1.0
e 295 89 4.0
e 296 37 1.0
e 297 32 1.0
e 298 169 1.0
e 299 317 1.0
e 300 314 1.0
e 301 192 1.0
e 302 62 8.0
e 303 219 3.0
e 304 290 3.0
e 305 10 1.0
e 306 122 1.0
e 307 227 1.0
e 308 7 2.0
e 309 290 2.0
e 310 208 5.0
e 311 20 1.0
e 312 201 1.0
e 313 51 7.0
e 314 42 1.0
e 315 238 49.0
e 316 221 1.0
e 317 134 1.0
e 318 7 1.0
e 319 67 1.0
